Route #1: 23 61 100
Route #2: 25 65 78 42 28
Route #3: 32 33 53 73 95 24
Route #4: 1 70 54
Route #5: 20 41 22 15
Route #6: 59 60 82
Route #7: 93 75
Route #8: 74 13 4
Route #9: 18 10 39
Route #10: 5 12 58
Route #11: 40 67 88 44
Route #12: 38 47 26 48 96 64 34
Route #13: 27 97 19
Route #14: 66 84 90 68
Route #15: 31 46 35
Route #16: 57 72 36 29 43 45 2 7
Route #17: 30 85 11 79
Route #18: 17 8
Route #19: 81 51 83
Route #20: 52 91 50
Route #21: 63 77 3
Route #22: 76 55 16 69
Route #23: 89 98 99 62 71
Route #24: 21 56 94 80
Route #25: 14 49 6 37 87
Route #26: 92 9 86
Cost 27591.0000
Time 16.0008